NAME : XML100_3373_26
DIMENSION : 101
NB_CLUSTERS : 5
CLUSTERING_ALG : KMedoids
CLUSTERING_PARAMS : k(4)
CLUSTERS
1 0
2 1 3 9 13 17 21 23 26 27 31 33 36 43 50 51 56 63 66 67 71 72 81 84 85 89 90
3 5 8 14 24 35 39 48 53 62 64 73 76 82 87 97
4 2 6 7 11 20 28 29 32 37 41 44 45 47 52 55 57 58 59 60 68 69 70 74 79 83 88 93 95 98 99
5 4 10 12 15 16 18 19 22 25 30 34 38 40 42 46 49 54 61 65 75 77 78 80 86 91 92 94 96 100
EOF